(set-logic QF_AUFBV)
(declare-fun __gtCONSTRAINT0 () Bool)
(declare-fun __gtCONSTRAINT1 () Bool)
(declare-fun __gtCONSTRAINT2 () Bool)
(declare-fun __gtCONSTRAINT3 () Bool)
(declare-fun __gtCONSTRAINT4 () Bool)
(declare-fun __gtCONSTRAINT5 () Bool)
(declare-fun __gtCONSTRAINT6 () Bool)
(declare-fun __gtCONSTRAINT7 () Bool)
(declare-fun __gtCONSTRAINT8 () Bool)
(declare-fun __gtCONSTRAINT9 () Bool)
(declare-fun __gtCONSTRAINT10 () Bool)
(declare-fun __gtCONSTRAINT11 () Bool)
(declare-fun __gtCONSTRAINT12 () Bool)
(declare-fun __gtCONSTRAINT13 () Bool)
(declare-fun __gtCONSTRAINT14 () Bool)
(declare-fun __gtCONSTRAINT15 () Bool)
(declare-fun __gtCONSTRAINT16 () Bool)
(declare-fun __gtCONSTRAINT17 () Bool)
(declare-fun __gtCONSTRAINT18 () Bool)
(declare-fun __gtCONSTRAINT19 () Bool)
(declare-fun __gtCONSTRAINT20 () Bool)
(declare-fun __gtCONSTRAINT21 () Bool)
(declare-fun __gtCONSTRAINT22 () Bool)
(declare-fun __gtCONSTRAINT23 () Bool)
(declare-fun __gtCONSTRAINT24 () Bool)
(declare-fun __gtCONSTRAINT25 () Bool)
(declare-fun __gtCONSTRAINT26 () Bool)
(declare-fun __gtCONSTRAINT27 () Bool)
(declare-fun __gtCONSTRAINT28 () Bool)
(declare-fun __gtCONSTRAINT29 () Bool)
(declare-fun __gtCONSTRAINT30 () Bool)
(declare-fun __gtCONSTRAINT31 () Bool)
(declare-fun __gtCONSTRAINT32 () Bool)
(declare-fun __gtCONSTRAINT33 () Bool)
(declare-fun __gtCONSTRAINT34 () Bool)
(declare-fun __gtCONSTRAINT35 () Bool)
(declare-fun __gtCONSTRAINT36 () Bool)
(declare-fun __gtCONSTRAINT37 () Bool)
(declare-fun __gtCONSTRAINT38 () Bool)
(declare-fun __gtCONSTRAINT39 () Bool)
(declare-fun __gtCONSTRAINT40 () Bool)
(declare-fun __gtCONSTRAINT41 () Bool)
(declare-fun __gtCONSTRAINT42 () Bool)
(declare-fun __gtCONSTRAINT43 () Bool)
(declare-fun __gtCONSTRAINT44 () Bool)
(declare-fun __gtCONSTRAINT45 () Bool)
(declare-fun __gtCONSTRAINT46 () Bool)
(declare-fun __gtCONSTRAINT47 () Bool)
(declare-fun __gtCONSTRAINT48 () Bool)
(declare-fun __gtCONSTRAINT49 () Bool)
(declare-fun __gtCONSTRAINT50 () Bool)
(declare-fun __gtCONSTRAINT51 () Bool)
(declare-fun __gtCONSTRAINT52 () Bool)
(declare-fun __gtCONSTRAINT53 () Bool)
(declare-fun __gtCONSTRAINT54 () Bool)
(declare-fun __gtCONSTRAINT55 () Bool)
(declare-fun __gtCONSTRAINT56 () Bool)
(declare-fun __gtCONSTRAINT57 () Bool)
(declare-fun __gtCONSTRAINT58 () Bool)
(declare-fun __gtCONSTRAINT59 () Bool)
(declare-fun __gtCONSTRAINT60 () Bool)
(declare-fun __gtCONSTRAINT61 () Bool)
(declare-fun __gtCONSTRAINT62 () Bool)
(declare-fun __gtCONSTRAINT63 () Bool)
(declare-fun __gtCONSTRAINT64 () Bool)
(declare-fun __gtCONSTRAINT65 () Bool)
(declare-fun __gtCONSTRAINT66 () Bool)
(declare-fun __gtCONSTRAINT67 () Bool)
(declare-fun _sfEvent_ () (_ BitVec 32))
(declare-fun __gtAGG__rtDWork () (_ BitVec 32))
(declare-fun sf_previousEvent8 () (_ BitVec 32))
(declare-fun sf_previousEvent8<1> () (_ BitVec 32))
(declare-fun _sfEvent_<1> () (_ BitVec 32))
(declare-fun _sfEvent_<2> () (_ BitVec 32))
(declare-fun __gtINDEX0 () (_ BitVec 32))
(declare-fun __gtINDEX1 () (_ BitVec 32))
(declare-fun __gtINDEX2 () (_ BitVec 32))
(declare-fun __gtINDEX3 () (_ BitVec 32))
(declare-fun __gtINDEX4 () (_ BitVec 32))
(declare-fun __gtINDEX5 () (_ BitVec 32))
(declare-fun __gtINDEX6 () (_ BitVec 32))
(declare-fun __gtINDEX7 () (_ BitVec 32))
(declare-fun __gtINDEX8 () (_ BitVec 32))
(declare-fun __gtINDEX9 () (_ BitVec 32))
(declare-fun __gtINDEX10 () (_ BitVec 32))
(declare-fun __gtINDEX11 () (_ BitVec 32))
(declare-fun __gtINDEX12 () (_ BitVec 32))
(declare-fun __gtINDEX13 () (_ BitVec 32))
(declare-fun __gtINDEX14 () (_ BitVec 32))
(declare-fun __gtINDEX15 () (_ BitVec 32))
(declare-fun __gtINDEX16 () (_ BitVec 32))
(declare-fun __gtINDEX17 () (_ BitVec 32))
(declare-fun __gtINDEX18 () (_ BitVec 32))
(declare-fun __gtINDEX19 () (_ BitVec 32))
(declare-fun __gtINDEX20 () (_ BitVec 32))
(declare-fun __gtINDEX21 () (_ BitVec 32))
(declare-fun __gtINDEX22 () (_ BitVec 32))
(declare-fun __gtINDEX23 () (_ BitVec 32))
(declare-fun __gtINDEX24 () (_ BitVec 32))
(declare-fun __gtINDEX25 () (_ BitVec 32))
(declare-fun __gtINDEX26 () (_ BitVec 32))
(declare-fun __gtINDEX27 () (_ BitVec 32))
(declare-fun __gtINDEX28 () (_ BitVec 32))
(declare-fun __gtINDEX29 () (_ BitVec 32))
(declare-fun __gtINDEX30 () (_ BitVec 32))
(declare-fun __gtINDEX31 () (_ BitVec 32))
(declare-fun __gtINDEX32 () (_ BitVec 32))
(declare-fun __gtINDEX33 () (_ BitVec 32))
(declare-fun __gtINDEX34 () (_ BitVec 32))
(declare-fun __gtINDEX35 () (_ BitVec 32))
(declare-fun __gtPTR0 () (Array (_ BitVec 32) (_ BitVec 32)))
(declare-fun __gtFIELD__bitsForTID0__gtAGG____anonstruct_D_Work_4 () (Array (_ BitVec 32) (_ BitVec 32)))
(declare-fun __gtFIELD__is_PAVI__gtAGG____anonstruct_bitsForTID0_5 () (Array (_ BitVec 32) (_ BitVec 3)))
(declare-fun __gtFIELD__is_PLRI__gtAGG____anonstruct_bitsForTID0_5 () (Array (_ BitVec 32) (_ BitVec 2)))
(declare-fun __gtFIELD__is_PPVARP__gtAGG____anonstruct_bitsForTID0_5 () (Array (_ BitVec 32) (_ BitVec 2)))
(declare-fun __gtFIELD__is_PPVARP__gtAGG____anonstruct_bitsForTID0_5<1> () (Array (_ BitVec 32) (_ BitVec 2)))
(declare-fun __gtFIELD__is_PVRP__gtAGG____anonstruct_bitsForTID0_5 () (Array (_ BitVec 32) (_ BitVec 2)))
(declare-fun __gtFIELD__is_PURI__gtAGG____anonstruct_bitsForTID0_5 () (Array (_ BitVec 32) (_ BitVec 2)))
(declare-fun __gtFIELD__is_PURI__gtAGG____anonstruct_bitsForTID0_5<1> () (Array (_ BitVec 32) (_ BitVec 2)))
(declare-fun __gtFIELD__is_Eng__gtAGG____anonstruct_bitsForTID0_5 () (Array (_ BitVec 32) (_ BitVec 1)))
(declare-fun __gtFIELD__sent__gtAGG____anonstruct_D_Work_4 () (Array (_ BitVec 32) (_ BitVec 32)))
(declare-fun __gtFIELD__sh_rst__gtAGG____anonstruct_D_Work_4 () (Array (_ BitVec 32) (_ BitVec 32)))
(declare-fun __gtFIELD__sh_rst__gtAGG____anonstruct_D_Work_4<1> () (Array (_ BitVec 32) (_ BitVec 32)))
(declare-fun __gtFIELD__is_Eng__gtAGG____anonstruct_bitsForTID0_5<1> () (Array (_ BitVec 32) (_ BitVec 1)))
(assert (= __gtCONSTRAINT0 (not (= _sfEvent_ (_ bv8 32)))))
(assert (= __gtCONSTRAINT1 (= ((_ zero_extend 29) (select __gtFIELD__is_PAVI__gtAGG____anonstruct_bitsForTID0_5 __gtINDEX1)) (_ bv1 32))))
(assert (= __gtCONSTRAINT2 (not (= _sfEvent_ (_ bv2 32)))))
(assert (= __gtCONSTRAINT3 (not (= _sfEvent_ (_ bv3 32)))))
(assert (= __gtCONSTRAINT4 (not (= ((_ zero_extend 30) (select __gtFIELD__is_PLRI__gtAGG____anonstruct_bitsForTID0_5 __gtINDEX3)) (_ bv1 32)))))
(assert (= __gtCONSTRAINT5 (= ((_ zero_extend 30) (select __gtFIELD__is_PLRI__gtAGG____anonstruct_bitsForTID0_5 __gtINDEX5)) (_ bv2 32))))
(assert (= __gtCONSTRAINT6 (not (= _sfEvent_ (_ bv4 32)))))
(assert (= __gtCONSTRAINT7 (not (= _sfEvent_ (_ bv5 32)))))
(assert (= __gtCONSTRAINT8 (not (= ((_ zero_extend 30) (select __gtFIELD__is_PPVARP__gtAGG____anonstruct_bitsForTID0_5 __gtINDEX7)) (_ bv1 32)))))
(assert (= __gtCONSTRAINT9 (not (= ((_ zero_extend 30) (select __gtFIELD__is_PPVARP__gtAGG____anonstruct_bitsForTID0_5 __gtINDEX9)) (_ bv2 32)))))
(assert (= __gtCONSTRAINT10 (not (= ((_ zero_extend 30) (select __gtFIELD__is_PPVARP__gtAGG____anonstruct_bitsForTID0_5 __gtINDEX11)) (_ bv3 32)))))
(assert (= __gtCONSTRAINT11 (= __gtFIELD__is_PPVARP__gtAGG____anonstruct_bitsForTID0_5<1> (store __gtFIELD__is_PPVARP__gtAGG____anonstruct_bitsForTID0_5 __gtINDEX13 ((_ extract 1 0) (_ bv0 32))))))
(assert (= __gtCONSTRAINT12 (= ((_ zero_extend 30) (select __gtFIELD__is_PVRP__gtAGG____anonstruct_bitsForTID0_5 __gtINDEX15)) (_ bv1 32))))
(assert (= __gtCONSTRAINT13 (not (= _sfEvent_ (_ bv0 32)))))
(assert (= __gtCONSTRAINT14 (not (= _sfEvent_ (_ bv4 32)))))
(assert (= __gtCONSTRAINT15 (not (= ((_ zero_extend 30) (select __gtFIELD__is_PURI__gtAGG____anonstruct_bitsForTID0_5 __gtINDEX17)) (_ bv1 32)))))
(assert (= __gtCONSTRAINT16 (not (= ((_ zero_extend 30) (select __gtFIELD__is_PURI__gtAGG____anonstruct_bitsForTID0_5 __gtINDEX19)) (_ bv2 32)))))
(assert (= __gtCONSTRAINT17 (= __gtFIELD__is_PURI__gtAGG____anonstruct_bitsForTID0_5<1> (store __gtFIELD__is_PURI__gtAGG____anonstruct_bitsForTID0_5 __gtINDEX21 ((_ extract 1 0) (_ bv0 32))))))
(assert (= __gtCONSTRAINT18 (= ((_ zero_extend 31) (select __gtFIELD__is_Eng__gtAGG____anonstruct_bitsForTID0_5 __gtINDEX23)) (_ bv1 32))))
(assert (= __gtCONSTRAINT19 (not (= (select __gtFIELD__sent__gtAGG____anonstruct_D_Work_4 __gtINDEX24) (_ bv4 32)))))
(assert (= __gtCONSTRAINT20 (not (= (select __gtFIELD__sent__gtAGG____anonstruct_D_Work_4 __gtINDEX25) (_ bv9 32)))))
(assert (= __gtCONSTRAINT21 (not (= (select __gtFIELD__sent__gtAGG____anonstruct_D_Work_4 __gtINDEX26) (bvneg (_ bv1 32))))))
(assert (= __gtCONSTRAINT22 (not (= (select __gtFIELD__sent__gtAGG____anonstruct_D_Work_4 __gtINDEX27) (_ bv1 32)))))
(assert (= __gtCONSTRAINT23 (not (= (select __gtFIELD__sent__gtAGG____anonstruct_D_Work_4 __gtINDEX28) (_ bv2 32)))))
(assert (= __gtCONSTRAINT24 (not (= (select __gtFIELD__sent__gtAGG____anonstruct_D_Work_4 __gtINDEX29) (_ bv3 32)))))
(assert (= __gtCONSTRAINT25 (= (select __gtFIELD__sh_rst__gtAGG____anonstruct_D_Work_4 __gtINDEX30) (_ bv1 32))))
(assert (= __gtCONSTRAINT26 (= __gtFIELD__sh_rst__gtAGG____anonstruct_D_Work_4<1> (store __gtFIELD__sh_rst__gtAGG____anonstruct_D_Work_4 __gtINDEX31 (_ bv0 32)))))
(assert (= __gtCONSTRAINT27 (= sf_previousEvent8<1> _sfEvent_)))
(assert (= __gtCONSTRAINT28 (= _sfEvent_<1> (_ bv7 32))))
(assert (= __gtCONSTRAINT29 (= _sfEvent_<2> sf_previousEvent8<1>)))
(assert (= __gtCONSTRAINT30 (= ((_ zero_extend 31) (select __gtFIELD__is_Eng__gtAGG____anonstruct_bitsForTID0_5 __gtINDEX33)) (_ bv1 32))))
(assert (= __gtCONSTRAINT31 (= __gtFIELD__is_Eng__gtAGG____anonstruct_bitsForTID0_5<1> (store __gtFIELD__is_Eng__gtAGG____anonstruct_bitsForTID0_5 __gtINDEX35 ((_ extract 0 0) (_ bv1 32))))))
(assert (= __gtCONSTRAINT32 (= __gtINDEX0 __gtAGG__rtDWork)))
(assert (= __gtCONSTRAINT33 (= __gtINDEX1 (select __gtFIELD__bitsForTID0__gtAGG____anonstruct_D_Work_4 __gtINDEX0))))
(assert (= __gtCONSTRAINT34 (= __gtINDEX2 __gtAGG__rtDWork)))
(assert (= __gtCONSTRAINT35 (= __gtINDEX3 (select __gtFIELD__bitsForTID0__gtAGG____anonstruct_D_Work_4 __gtINDEX2))))
(assert (= __gtCONSTRAINT36 (= __gtINDEX4 __gtAGG__rtDWork)))
(assert (= __gtCONSTRAINT37 (= __gtINDEX5 (select __gtFIELD__bitsForTID0__gtAGG____anonstruct_D_Work_4 __gtINDEX4))))
(assert (= __gtCONSTRAINT38 (= __gtINDEX6 __gtAGG__rtDWork)))
(assert (= __gtCONSTRAINT39 (= __gtINDEX7 (select __gtFIELD__bitsForTID0__gtAGG____anonstruct_D_Work_4 __gtINDEX6))))
(assert (= __gtCONSTRAINT40 (= __gtINDEX8 __gtAGG__rtDWork)))
(assert (= __gtCONSTRAINT41 (= __gtINDEX9 (select __gtFIELD__bitsForTID0__gtAGG____anonstruct_D_Work_4 __gtINDEX8))))
(assert (= __gtCONSTRAINT42 (= __gtINDEX10 __gtAGG__rtDWork)))
(assert (= __gtCONSTRAINT43 (= __gtINDEX11 (select __gtFIELD__bitsForTID0__gtAGG____anonstruct_D_Work_4 __gtINDEX10))))
(assert (= __gtCONSTRAINT44 (= __gtINDEX12 __gtAGG__rtDWork)))
(assert (= __gtCONSTRAINT45 (= __gtINDEX13 (select __gtFIELD__bitsForTID0__gtAGG____anonstruct_D_Work_4 __gtINDEX12))))
(assert (= __gtCONSTRAINT46 (= __gtINDEX14 __gtAGG__rtDWork)))
(assert (= __gtCONSTRAINT47 (= __gtINDEX15 (select __gtFIELD__bitsForTID0__gtAGG____anonstruct_D_Work_4 __gtINDEX14))))
(assert (= __gtCONSTRAINT48 (= __gtINDEX16 __gtAGG__rtDWork)))
(assert (= __gtCONSTRAINT49 (= __gtINDEX17 (select __gtFIELD__bitsForTID0__gtAGG____anonstruct_D_Work_4 __gtINDEX16))))
(assert (= __gtCONSTRAINT50 (= __gtINDEX18 __gtAGG__rtDWork)))
(assert (= __gtCONSTRAINT51 (= __gtINDEX19 (select __gtFIELD__bitsForTID0__gtAGG____anonstruct_D_Work_4 __gtINDEX18))))
(assert (= __gtCONSTRAINT52 (= __gtINDEX20 __gtAGG__rtDWork)))
(assert (= __gtCONSTRAINT53 (= __gtINDEX21 (select __gtFIELD__bitsForTID0__gtAGG____anonstruct_D_Work_4 __gtINDEX20))))
(assert (= __gtCONSTRAINT54 (= __gtINDEX22 __gtAGG__rtDWork)))
(assert (= __gtCONSTRAINT55 (= __gtINDEX23 (select __gtFIELD__bitsForTID0__gtAGG____anonstruct_D_Work_4 __gtINDEX22))))
(assert (= __gtCONSTRAINT56 (= __gtINDEX24 __gtAGG__rtDWork)))
(assert (= __gtCONSTRAINT57 (= __gtINDEX25 __gtAGG__rtDWork)))
(assert (= __gtCONSTRAINT58 (= __gtINDEX26 __gtAGG__rtDWork)))
(assert (= __gtCONSTRAINT59 (= __gtINDEX27 __gtAGG__rtDWork)))
(assert (= __gtCONSTRAINT60 (= __gtINDEX28 __gtAGG__rtDWork)))
(assert (= __gtCONSTRAINT61 (= __gtINDEX29 __gtAGG__rtDWork)))
(assert (= __gtCONSTRAINT62 (= __gtINDEX30 __gtAGG__rtDWork)))
(assert (= __gtCONSTRAINT63 (= __gtINDEX31 __gtAGG__rtDWork)))
(assert (= __gtCONSTRAINT64 (= __gtINDEX32 __gtAGG__rtDWork)))
(assert (= __gtCONSTRAINT65 (= __gtINDEX33 (select __gtFIELD__bitsForTID0__gtAGG____anonstruct_D_Work_4 __gtINDEX32))))
(assert (= __gtCONSTRAINT66 (= __gtINDEX34 __gtAGG__rtDWork)))
(assert (= __gtCONSTRAINT67 (= __gtINDEX35 (select __gtFIELD__bitsForTID0__gtAGG____anonstruct_D_Work_4 __gtINDEX34))))
(assert (and __gtCONSTRAINT0 __gtCONSTRAINT1 __gtCONSTRAINT2 __gtCONSTRAINT3 __gtCONSTRAINT4 __gtCONSTRAINT5 __gtCONSTRAINT6 __gtCONSTRAINT7 __gtCONSTRAINT8 __gtCONSTRAINT9 __gtCONSTRAINT10 __gtCONSTRAINT11 __gtCONSTRAINT12 __gtCONSTRAINT13 __gtCONSTRAINT14 __gtCONSTRAINT15 __gtCONSTRAINT16 __gtCONSTRAINT17 __gtCONSTRAINT18 __gtCONSTRAINT19 __gtCONSTRAINT20 __gtCONSTRAINT21 __gtCONSTRAINT22 __gtCONSTRAINT23 __gtCONSTRAINT24 __gtCONSTRAINT25 __gtCONSTRAINT26 __gtCONSTRAINT27 __gtCONSTRAINT28 __gtCONSTRAINT29 __gtCONSTRAINT30 __gtCONSTRAINT31 __gtCONSTRAINT32 __gtCONSTRAINT33 __gtCONSTRAINT34 __gtCONSTRAINT35 __gtCONSTRAINT36 __gtCONSTRAINT37 __gtCONSTRAINT38 __gtCONSTRAINT39 __gtCONSTRAINT40 __gtCONSTRAINT41 __gtCONSTRAINT42 __gtCONSTRAINT43 __gtCONSTRAINT44 __gtCONSTRAINT45 __gtCONSTRAINT46 __gtCONSTRAINT47 __gtCONSTRAINT48 __gtCONSTRAINT49 __gtCONSTRAINT50 __gtCONSTRAINT51 __gtCONSTRAINT52 __gtCONSTRAINT53 __gtCONSTRAINT54 __gtCONSTRAINT55 __gtCONSTRAINT56 __gtCONSTRAINT57 __gtCONSTRAINT58 __gtCONSTRAINT59 __gtCONSTRAINT60 __gtCONSTRAINT61 __gtCONSTRAINT62 __gtCONSTRAINT63 __gtCONSTRAINT64 __gtCONSTRAINT65 __gtCONSTRAINT66 __gtCONSTRAINT67))
(check-sat)
(exit)
